120
150
52
49
51
55
44
49
58
49
49
43
56
60
60
56
47
51
58
60
60
47
54
41
50
57
53
51
57
55
51
45
56
49
51
54
42
58
49
40
53
43
56
46
52
53
60
60
60
60
47
58
59
51
50
44
41
54
48
45
60
49
57
51
48
40
42
51
44
59
48
58
50
43
46
60
60
54
48
60
60
52
45
48
54
42
60
60
52
53
56
48
45
58
48
52
49
60
49
60
54
49
49
45
52
60
60
60
60
55
44
60
52
46
44
45
50
60
47
49
48
60
